     Program PWSCF v.6.4.1 starts on 14Jan2021 at 12: 1: 2

     R & G space division:  proc/nbgrp/npool/nimage =      16
     Waiting for input...
     Reading input from standard input
Warning: card &IONS ignored
Warning: card     ION_DYNAMICS="BFGS" ignored
Warning: card / ignored

     Current dimensions of program PWSCF are:
     Max number of different atomic species (ntypx) = 10
     Max number of k-points (npk) =  40000
     Max angular momentum in pseudopotentials (lmaxx) =  3

     IMPORTANT: XC functional enforced from input :
     Exchange-correlation      = HSE ( 1  4 12  4 0 0)
     EXX-fraction              =        0.25
     Any further DFT definition will be discarded
     Please, verify this is what you really want

               file N.pbe-n-kjpaw_psl.1.0.0.UPF: wavefunction(s)  2S renormalized

     gamma-point specific algorithms are used
     Message from routine setup :
     BEWARE: nonlinear core correction is not consistent with hybrid XC

     EXX: grid of k+q points same as grid of k-points

     bravais-lattice index     =            4
     lattice parameter (alat)  =       4.9133  a.u.
     unit-cell volume          =     820.6379 (a.u.)^3
     number of atoms/cell      =            2
     number of atomic types    =            2
     number of electrons       =         8.00
     number of Kohn-Sham states=            5
     kinetic-energy cutoff     =      50.0000  Ry
     charge density cutoff     =     200.0000  Ry
     cutoff for Fock operator  =     200.0000  Ry
     convergence threshold     =      1.0E-08
     mixing beta               =       0.3100
     number of iterations used =            8  plain     mixing
     Exchange-correlation      = HSE ( 1  4 12  4 0 0)
     EXX-fraction              =        0.25

     celldm(1)=   4.913288  celldm(2)=   0.000000  celldm(3)=   7.989220
     celldm(4)=   0.000000  celldm(5)=   0.000000  celldm(6)=   0.000000

     crystal axes: (cart. coord. in units of alat)
               a(1) = (   1.000000   0.000000   0.000000 )
               a(2) = (  -0.500000   0.866025   0.000000 )
               a(3) = (   0.000000   0.000000   7.989220 )

     reciprocal axes: (cart. coord. in units 2 pi/alat)
               b(1) = (  1.000000  0.577350  0.000000 )
               b(2) = (  0.000000  1.154701  0.000000 )
               b(3) = (  0.000000  0.000000  0.125169 )

     PseudoPot. # 1 for B  read from file:
     ./pseudo/B.pbe-n-kjpaw_psl.1.0.0.UPF
     MD5 check sum: 8c825a5969375aca5c2c6ad5945b3059
     Pseudo is Projector augmented-wave + core cor, Zval =  3.0
     Generated using "atomic" code by A. Dal Corso v.6.3
     Shape of augmentation charge: PSQ
     Using radial grid of 1059 points,  4 beta functions with:
                l(1) =   0
                l(2) =   0
                l(3) =   1
                l(4) =   1
     Q(r) pseudized with 0 coefficients

     PseudoPot. # 2 for N  read from file:
     ./pseudo/N.pbe-n-kjpaw_psl.1.0.0.UPF
     MD5 check sum: 14c48229446f9f2d411169a3abcbc3fa
     Pseudo is Projector augmented-wave + core cor, Zval =  5.0
     Generated using "atomic" code by A. Dal Corso v.6.3
     Shape of augmentation charge: PSQ
     Using radial grid of 1085 points,  4 beta functions with:
                l(1) =   0
                l(2) =   0
                l(3) =   1
                l(4) =   1
     Q(r) pseudized with 0 coefficients

     atomic species   valence    mass     pseudopotential
        B              3.00    10.00000     B ( 1.00)
        N              5.00    14.00000     N ( 1.00)

     12 Sym. Ops. (no inversion) found

                                    s                        frac. trans.

      isym =  1     identity

 cryst.   s( 1) = (     1          0          0      )
                  (     0          1          0      )
                  (     0          0          1      )

 cart.    s( 1) = (  1.0000000  0.0000000  0.0000000 )
                  (  0.0000000  1.0000000  0.0000000 )
                  (  0.0000000  0.0000000  1.0000000 )

      isym =  2     180 deg rotation - cart. axis [0,1,0]

[...]

      isym =  3     120 deg rotation - cryst. axis [0,0,1]

[...]

      isym =  6     180 deg rotation - cryst. axis [2,1,0]

[...]

      isym =  7     inv. 180 deg rotation - cart. axis [0,0,1]

[...]

      isym =  8     inv. 180 deg rotation - cart. axis [1,0,0]

[...]

      isym =  9     inv.  60 deg rotation - cryst. axis [0,0,1]

 cryst.   s( 9) = (    -1         -1          0      )
                  (     1          0          0      )
                  (     0          0         -1      )

 cart.    s( 9) = ( -0.5000000  0.8660254  0.0000000 )
                  ( -0.8660254 -0.5000000  0.0000000 )
                  (  0.0000000  0.0000000 -1.0000000 )

[...]

 cryst.   s(10) = (     0          1          0      )
                  (    -1         -1          0      )
                  (     0          0         -1      )

 cart.    s(10) = ( -0.5000000 -0.8660254  0.0000000 )
                  (  0.8660254 -0.5000000  0.0000000 )
                  (  0.0000000  0.0000000 -1.0000000 )

[...]

      isym = 12     inv. 180 deg rotation - cryst. axis [1,1,0]

 cryst.   s(12) = (     0         -1          0      )
                  (    -1          0          0      )
                  (     0          0          1      )

 cart.    s(12) = (  0.5000000 -0.8660254  0.0000000 )
                  ( -0.8660254 -0.5000000  0.0000000 )
                  (  0.0000000  0.0000000  1.0000000 )

     point group D_3h (-62m)
     there are  6 classes
     the character table:

       E     2C3   3C2   s_h   2S3   3s_v
A'_1   1.00  1.00  1.00  1.00  1.00  1.00
A'_2   1.00  1.00 -1.00  1.00  1.00 -1.00
E'     2.00 -1.00  0.00  2.00 -1.00  0.00
A''1   1.00  1.00  1.00 -1.00 -1.00 -1.00
A''2   1.00  1.00 -1.00 -1.00 -1.00  1.00
E''    2.00 -1.00  0.00 -2.00  1.00  0.00

     the symmetry operations in each class and the name of the first element:

     E        1
          identity
     2C3      3    4
          120 deg rotation - cryst. axis [0,0,1]
     3C2      2    6    5
          180 deg rotation - cart. axis [0,1,0]
     s_h      7
          inv. 180 deg rotation - cart. axis [0,0,1]
     2S3      9   10
          inv.  60 deg rotation - cryst. axis [0,0,1]
     3s_v     8   11   12
          inv. 180 deg rotation - cart. axis [1,0,0]

   Cartesian axes

     site n.     atom                  positions (alat units)
         1           B   tau(   1) = (   0.5000000   0.2886751   0.0000000  )
         2           N   tau(   2) = (  -0.0000000   0.5773503   0.0000000  )

   Crystallographic axes

     site n.     atom                  positions (cryst. coord.)
         1           B   tau(   1) = (  0.6666667  0.3333333  0.0000000  )
         2           N   tau(   2) = (  0.3333333  0.6666667  0.0000000  )

     number of k points=     1  gaussian smearing, width (Ry)=  0.0100
                       cart. coord. in units 2pi/alat
        k(    1) = (   0.0000000   0.0000000   0.0000000), wk =   2.0000000

                       cryst. coord.
        k(    1) = (   0.0000000   0.0000000   0.0000000), wk =   2.0000000

     Check: negative core charge=   -0.000009

     Initial potential from superposition of free atoms

     starting charge    7.99971, renormalised to    8.00000

     negative rho (up, down):  6.554E-04 0.000E+00
     Starting wfcs are    8 randomized atomic wfcs

     Self-consistent Calculation

     iteration #  1     ecut=    50.00 Ry     beta= 0.31
     Davidson diagonalization with overlap
     ethr =  1.00E-02,  avg # of iterations =  3.0

     negative rho (up, down):  9.627E-04 0.000E+00

     total energy              =     -39.37172458 Ry
     Harris-Foulkes estimate   =     -39.58552763 Ry
     estimated scf accuracy    <       0.56714604 Ry

[...]

     End of self-consistent calculation

          k = 0.0000 0.0000 0.0000 (  2499 PWs)   bands (ev):

   -21.4772  -9.4278  -5.7063  -5.7063   0.1336

     occupation numbers
     1.0000   1.0000   1.0000   1.0000   0.0000

     the Fermi energy is    -2.3637 ev

!    total energy              =     -39.42716388 Ry
     Harris-Foulkes estimate   =     -39.42716388 Ry
     estimated scf accuracy    <          4.7E-09 Ry

     convergence has been achieved in  15 iterations

     Using ACE for calculation of exact exchange

[...]

     EXX: now go back to refine exchange calculation

[...]

     total energy              =     -35.96558611 Ry
     Harris-Foulkes estimate   =     -35.96557483 Ry
     est. exchange err (dexx)  =       0.00030688 Ry
     - averaged Fock potential =       2.91516459 Ry
     + Fock energy (ACE)       =      -1.45703370 Ry

[...]

     total energy              =     -35.96561779 Ry
     Harris-Foulkes estimate   =     -35.96561780 Ry
     estimated scf accuracy    <       0.00000002 Ry

[...]

     total energy              =     -35.96561780 Ry
     Harris-Foulkes estimate   =     -35.96561780 Ry
     est. exchange err (dexx)  =       0.00000001 Ry
     - averaged Fock potential =       2.91371836 Ry
     + Fock energy (ACE)       =      -1.45686285 Ry

     EXX: now go back to refine exchange calculation

     Self-consistent Calculation

     iteration #  1     ecut=    50.00 Ry     beta= 0.31
     Davidson diagonalization with overlap
     ethr =  2.99E-10,  avg # of iterations =  2.0

     Threshold (ethr) on eigenvalues was too large:
     Diagonalizing with lowered threshold

     Davidson diagonalization with overlap
     ethr =  1.37E-11,  avg # of iterations =  1.0

[...]

     End of self-consistent calculation

          k = 0.0000 0.0000 0.0000 (  2499 PWs)   bands (ev):

   -23.5573 -10.5813  -7.4382  -7.4382   0.3448

     occupation numbers
     1.0000   1.0000   1.0000   1.0000   0.0000

     the Fermi energy is    -5.4947 ev

!    total energy              =     -35.96561780 Ry
     Harris-Foulkes estimate   =     -35.96561780 Ry
     estimated scf accuracy    <          9.5E-10 Ry

     convergence has been achieved in   1 iterations

     Using ACE for calculation of exact exchange

!!   total energy              =     -35.96561780 Ry
     Harris-Foulkes estimate   =     -35.96561780 Ry
     est. exchange err (dexx)  =          4.6E-10 Ry
     - averaged Fock potential =       2.91372027 Ry
     + Fock energy (ACE)       =      -1.45685742 Ry

     EXX self-consistency reached

     negative rho (up, down):  1.990E-03 0.000E+00

     Forces acting on atoms (cartesian axes, Ry/au):

     atom    1 type  1   force =     0.00000000    0.00000000    0.00000000
     atom    2 type  2   force =     0.00000000    0.00000000    0.00000000
     The non-local contrib.  to forces
     atom    1 type  1   force =     0.00000000    0.00000000    0.00000000
     atom    2 type  2   force =    -0.00000000   -0.00000000    0.00000000
     The ionic contribution  to forces
     atom    1 type  1   force =    -0.00000144    0.00000083    0.00000000
     atom    2 type  2   force =     0.00000144   -0.00000083   -0.00000000
     The local contribution  to forces
     atom    1 type  1   force =     0.00000146   -0.00000084    0.00000001
     atom    2 type  2   force =    -0.00000168    0.00000097    0.00000001
     The core correction contribution to forces
     atom    1 type  1   force =     0.00000002   -0.00000001    0.00000000
     atom    2 type  2   force =     0.00000001   -0.00000000   -0.00000000
     The Hubbard contrib.    to forces
     atom    1 type  1   force =     0.00000000    0.00000000    0.00000000
     atom    2 type  2   force =     0.00000000    0.00000000    0.00000000
     The SCF correction term to forces
     atom    1 type  1   force =    -0.00000000    0.00000000   -0.00000001
     atom    2 type  2   force =     0.00000000   -0.00000000   -0.00000002

     Total force =     0.000000     Total SCF correction =     0.000000

     Computing stress (Cartesian axis) and pressure

     negative rho (up, down):  1.990E-03 0.000E+00
     Message from routine exx_stress:
     USPP stress not tested
          total   stress  (Ry/bohr**3)                   (kbar)     P=   17.65
   0.00000317   0.00000000   0.00000000          0.47      0.00      0.00
   0.00000000   0.00000317  -0.00000000          0.00      0.47     -0.00
  -0.00000000   0.00000000   0.00035365         -0.00      0.00     52.02

     kinetic stress (kbar)   2008.56      0.00     -0.00
                                0.00   2008.56      0.00
                               -0.00      0.00   1918.17

     local   stress (kbar) -39642.05     -0.00      0.00
                               -0.00 -39642.05     -0.00
                                0.00     -0.00  39672.01

     nonloc. stress (kbar)    -29.62      0.00      0.00
                                0.00    -29.62      0.00
                                0.00      0.00     -6.43

     hartree stress (kbar)  19010.29      0.00     -0.00
                                0.00  19010.29      0.00
                               -0.00      0.00 -18581.50

     exc-cor stress (kbar)   -145.50      0.00     -0.00
                                0.00   -145.50      0.00
                               -0.00      0.00   -152.64

     corecor stress (kbar)   -192.58     -0.00      0.00
                               -0.00   -192.58      0.00
                                0.00      0.00   -182.90

     ewald   stress (kbar)  19099.96      0.00     -0.00
                                0.00  19099.96      0.00
                               -0.00      0.00 -22557.25

     hubbard stress (kbar)      0.00      0.00      0.00
                                0.00      0.00      0.00
                                0.00      0.00      0.00

     london  stress (kbar)      0.00      0.00      0.00
                                0.00      0.00      0.00
                                0.00      0.00      0.00

     DFT-D3  stress (kbar)      0.00      0.00      0.00
                                0.00      0.00      0.00
                                0.00      0.00      0.00

     XDM     stress (kbar)      0.00      0.00      0.00
                                0.00      0.00      0.00
                                0.00      0.00      0.00

     dft-nl  stress (kbar)      0.00      0.00      0.00
                                0.00      0.00      0.00
                                0.00      0.00      0.00

     TS-vdW  stress (kbar)      0.00      0.00      0.00
                                0.00      0.00      0.00
                                0.00      0.00      0.00

     EXX     stress (kbar)   -108.59     -0.00      0.00
                                0.00   -108.59      0.00
                                0.00      0.00    -57.43

     Writing output data file hBN.save/

     General routines

     Parallel routines

     EXX routines

     EXX+US  routines

     EXX+PAW routines

     PAW routines

   This run was terminated on:  12: 1:11  14Jan2021

   JOB DONE.