>> Start of run:  19-NOV-2020  11:54:43

reinit: Reading from standard input
reinit: Dumped input in INPUT_TMP.79508
************************** Dump of input data file ****************************
	SystemName       graphene
SystemLabel      graphene
NumberOfAtoms    2
NumberOfSpecies  1
%block ChemicalSpeciesLabel
 1   6   C
%endblock ChemicalSpeciesLabel
LatticeConstant     2.46 Ang
%block LatticeVectors
    0.866025    0.500000    0.000000
    0.866025   -0.500000    0.000000
    0.000000    0.000000    20.00000
%endblock LatticeVectors
%block kgrid_Monkhorst_Pack
64    0   0   0.0
 0   64   0   0.0
 0    0   1   0.0
%endblock kgrid_Monkhorst_Pack
%block BandLines
1   0.6667 0.3333 0.000
70  0.0000 0.0000 0.000
70  0.5000 0.0000 0.000
70  0.6667 0.3333 0.000
%endblock BandLines
AtomicCoordinatesFormat  Ang
BandlinesScale	ReciprocalLatticeVectors
AtomicCoordinatesFormat NotScaledCartesianAng
AtomCoorFormatOut   NotScaledCartesianAng
%block AtomicCoordinatesAndAtomicSpecies
   1.4400000      0.0000000      0.0000000          1
   2.8800000      0.0000000      0.0000000          1
%endblock AtomicCoordinatesAndAtomicSpecies
PAO.BasisSize     DZP
PAO.EnergyShift   0.05 eV
MD.TypeOfRun      CG
MD.NumCGsteps     0
MaxSCFIterations  300
MD.MaxForceTol    0.05 eV/Ang
#XC.functional	  VDW
#XC.authors	  DRSLL
XC.functional	  GGA
XC.authors	  PBE
MeshCutoff        400.0 Ry #metal bulks need large meshcutoff/clusters, smaller
#UseSaveData    true
#MD.UseSaveXV	.true.
#MD.UseSaveCG	.true.
#DM.UseSaveDM	.true.
DM.MixingWeight   0.10
DM.NumberPulay    3
WriteCoorXmol	.true.
WriteMullikenPop 1
WriteBands .true.
WriteEigenvalues        .true.
#%block SuperCell
#8 0 0
#0 8 0
#0 0 1
#%endblock SuperCell
SolutionMethod diagon
ElectronicTemperature  20 meV
#ParallelOverK T
SpinPolarized         .false.          # Logical parameters are: yes or no
#%block PS.lmax
#   C   2
#   H   1
#   Al  2
#   Cx  2
#   Hx  1
#%endblock PS.lmax
%block  ProjectedDensityOfStates
 -6.5 -2.5 0.05  700    eV
%endblock ProjectedDensityOfStates
#%block LocalDensityOfStates
#-4.25 -3.90 eV
#%endblock LocalDensityOfStates
#WriteWaveFunctions .true.
#%block WaveFuncKPoints
#0.000 0.000 0.000
#%endblock WaveFuncKPoints
#WriteCoorXmol          .true.
#WriteDenchar           .true.
#SaveRho			.true.
#SaveDeltaRho            .true.
#             Linear Optical  Responce
#OpticalCalculation  .True.   #This  enable the optical calculation
#Optical.EnergyMinimum    0 eV
#Optical.EnergyMaximum    6 eV
#%block Optical.Mesh
# 102 1 1
#%endblock Optical.Mesh
#Optical.Broaden  0.03 eV
#Optical.PolarizationType polarized
#%block Optical.Vector
# 1.0 0.0 0.0
#%endblock Optical.Vector
# polaraized ( the optical vector defined  the direction of the electric field )
#unpolarized( the optical  vector defined the direction of the incident light )
************************** End of input data file *****************************

reinit: -----------------------------------------------------------------------
reinit: System Name: graphene
reinit: -----------------------------------------------------------------------
reinit: System Label: graphene
reinit: -----------------------------------------------------------------------

initatom: Reading input for the pseudopotentials and atomic orbitals ----------
Species number:   1 Atomic number:    6 Label: C

Ground state valence configuration:   2s02  2p02
Reading pseudopotential information in formatted form from C.psf

Valence configuration for pseudopotential generation:
2s( 2.00) rc: 1.54
2p( 2.00) rc: 1.54
3d( 0.00) rc: 1.54
4f( 0.00) rc: 1.54
For C, standard SIESTA heuristics set lmxkb to 3
 (one more than the basis l, including polarization orbitals).
Use PS.lmax or PS.KBprojectors blocks to override.

<basis_specs>
C                    Z=   6    Mass=  12.010        Charge= 0.17977+309
Lmxo=1 Lmxkb= 3    BasisType=split      Semic=F
L=0  Nsemic=0  Cnfigmx=2
          n=1  nzeta=2  polorb=0
            splnorm:   0.15000
               vcte:    0.0000
               rinn:    0.0000
               qcoe:    0.0000
               qyuk:    0.0000
               qwid:   0.10000E-01
                rcs:    0.0000      0.0000
            lambdas:    1.0000      1.0000
L=1  Nsemic=0  Cnfigmx=2
          n=1  nzeta=2  polorb=1
            splnorm:   0.15000
               vcte:    0.0000
               rinn:    0.0000
               qcoe:    0.0000
               qyuk:    0.0000
               qwid:   0.10000E-01
                rcs:    0.0000      0.0000
            lambdas:    1.0000      1.0000
L=0  Nkbl=1  erefs: 0.17977+309
L=1  Nkbl=1  erefs: 0.17977+309
L=2  Nkbl=1  erefs: 0.17977+309
L=3  Nkbl=1  erefs: 0.17977+309
</basis_specs>

atom: Called for C                     (Z =   6)

read_vps: Pseudopotential generation method:
read_vps: ATM3      Troullier-Martins
Total valence charge:    4.00000

read_vps: Pseudopotential includes a core correction:
read_vps: Pseudo-core for xc-correction

xc_check: Exchange-correlation functional:
xc_check: GGA Perdew, Burke & Ernzerhof 1996
V l=0 = -2*Zval/r beyond r=  1.5227
V l=1 = -2*Zval/r beyond r=  1.5227
V l=2 = -2*Zval/r beyond r=  1.5227
V l=3 = -2*Zval/r beyond r=  1.5038
All V_l potentials equal beyond r=  1.5227
This should be close to max(r_c) in ps generation
All pots = -2*Zval/r beyond r=  1.5227

VLOCAL1: 99.0% of the norm of Vloc inside     18.722 Ry
VLOCAL1: 99.9% of the norm of Vloc inside     42.668 Ry
atom: Maximum radius for 4*pi*r*r*local-pseudopot. charge    1.83678
atom: Maximum radius for r*vlocal+2*Zval:    1.58088
GHOST: No ghost state for L =  0
GHOST: No ghost state for L =  1
GHOST: No ghost state for L =  2
GHOST: No ghost state for L =  3

KBgen: Kleinman-Bylander projectors:
   l= 0   rc=  1.704034   el= -1.009801   Ekb=  5.335044   kbcos=  0.316824
   l= 1   rc=  1.704034   el= -0.388707   Ekb= -3.785862   kbcos= -0.366464
   l= 2   rc=  1.791422   el=  0.001971   Ekb= -0.970471   kbcos= -0.009212
   l= 3   rc=  1.859892   el=  0.003065   Ekb= -0.399525   kbcos= -0.001223

KBgen: Total number of  Kleinman-Bylander projectors:   16
atom: -------------------------------------------------------------------------

atom: SANKEY-TYPE ORBITALS:
atom: Selected multiple-zeta basis: split

SPLIT: Orbitals with angular momentum L= 0

SPLIT: Basis orbitals for state 2s

SPLIT: PAO cut-off radius determined from an
SPLIT: energy shift=  0.003675 Ry

   izeta = 1
                 lambda =    1.000000
                     rc =    4.993604
                 energy =   -1.005980
                kinetic =    0.839218
    potential(screened) =   -1.845197
       potential(ionic) =   -5.392735

   izeta = 2
                 rmatch =    3.475094
              splitnorm =    0.150000
                 energy =   -0.867669
                kinetic =    1.299533
    potential(screened) =   -2.167202
       potential(ionic) =   -5.961376

SPLIT: Orbitals with angular momentum L= 1

SPLIT: Basis orbitals for state 2p

SPLIT: PAO cut-off radius determined from an
SPLIT: energy shift=  0.003675 Ry

   izeta = 1
                 lambda =    1.000000
                     rc =    6.253707
                 energy =   -0.385053
                kinetic =    2.351236
    potential(screened) =   -2.736289
       potential(ionic) =   -6.136106

   izeta = 2
                 rmatch =    3.745781
              splitnorm =    0.150000
                 energy =   -0.256704
                kinetic =    3.501099
    potential(screened) =   -3.757803
       potential(ionic) =   -7.537656

POLgen: Perturbative polarization orbital with L=  2

POLgen: Polarization orbital for state 2p

   izeta = 1
                     rc =    6.253707
                 energy =    1.023651
                kinetic =    2.146437
    potential(screened) =   -1.122786
       potential(ionic) =   -3.868043
atom: Total number of Sankey-type orbitals: 13

atm_pop: Valence configuration (for local Pseudopot. screening):
 2s( 2.00)
 2p( 2.00)
Vna: chval, zval:    4.00000   4.00000

Vna:  Cut-off radius for the neutral-atom potential:   6.253707
comcore: Pseudo-core radius Rcore=  1.791422

atom: _________________________________________________________________________

prinput: Basis input ----------------------------------------------------------

PAO.BasisType split

%block ChemicalSpeciesLabel
    1    6 C                       # Species index, atomic number, species label
%endblock ChemicalSpeciesLabel

%block PAO.Basis                 # Define Basis set
C                     2                    # Species label, number of l-shells
 n=2   0   2                         # n, l, Nzeta
   4.994      3.475
   1.000      1.000
 n=2   1   2 P   1                   # n, l, Nzeta, Polarization, NzetaPol
   6.254      3.746
   1.000      1.000
%endblock PAO.Basis

prinput: ----------------------------------------------------------------------

Dumping basis to NetCDF file C.ion.nc
coor:   Atomic-coordinates input format  =     Cartesian coordinates
coor:                                          (in Angstroms)

siesta: Atomic coordinates (Bohr) and species
siesta:      2.72121   0.00000   0.00000  1        1
siesta:      5.44241   0.00000   0.00000  1        2

siesta: System type = slab

initatomlists: Number of atoms, orbitals, and projectors:      2    26    32

coxmol: Writing XMOL coordinates into file graphene.xyz

siesta: ******************** Simulation parameters ****************************
siesta:
siesta: The following are some of the parameters of the simulation.
siesta: A complete list of the parameters used, including default values,
siesta: can be found in file out.fdf
siesta:
redata: Spin configuration                          = none
redata: Number of spin components                   = 1
redata: Time-Reversal Symmetry                      = T
redata: Spin-spiral                                 = F
redata: Long output                                 =   F
redata: Number of Atomic Species                    =        1
redata: Charge density info will appear in .RHO file
redata: Write Mulliken Pop.                         = Atomic and Orbital charges
redata: Matel table size (NRTAB)                    =     1024
redata: Mesh Cutoff                                 =   400.0000 Ry
redata: Net charge of the system                    =     0.0000 |e|
redata: Min. number of SCF Iter                     =        0
redata: Max. number of SCF Iter                     =      300
redata: SCF convergence failure will abort job
redata: SCF mix quantity                            = Hamiltonian
redata: Mix DM or H after convergence               =   F
redata: Recompute H after scf cycle                 =   F
redata: Mix DM in first SCF step                    =   T
redata: Write Pulay info on disk                    =   F
redata: New DM Mixing Weight                        =     0.1000
redata: New DM Occupancy tolerance                  = 0.000000000001
redata: No kicks to SCF
redata: DM Mixing Weight for Kicks                  =     0.5000
redata: Require Harris convergence for SCF          =   F
redata: Harris energy tolerance for SCF             =     0.000100 eV
[...]
InitMesh: Mesh cutoff (required, used) =   400.000   411.030 Ry
ExtMesh (bp) on 0 =   111 x   100 x   159 =     1764900
New grid distribution:   2
           1       1:   15    1:   15    7:    8
           2       1:   15    1:   15   17:  288
           3       1:   15    1:   15    4:    5
           4       1:   15    1:   15    2:    2
           5       1:   15    1:   15   12:   16
           6       1:   15    1:   15  299:  299
           7       1:   15    1:   15    1:    1
           8       1:   15    1:   15  292:  293
           9       1:   15    1:   15    9:   11
          10       1:   15    1:   15  300:  300
          11       1:   15    1:   15    6:    6
          12       1:   15    1:   15  294:  295
          13       1:   15    1:   15  296:  297
          14       1:   15    1:   15  298:  298
          15       1:   15    1:   15    3:    3
          16       1:   15    1:   15  289:  291
New grid distribution:   3
           1       1:   15    1:   15    1:    3
           2       1:   15    1:   15   64:  282
           3       1:   15    1:   15  299:  300
           4       1:   15    1:   15  291:  293
           5       1:   15    1:   15   19:   63
           6       1:   15    1:   15    6:    8
           7       1:   15    1:   15    9:   10
           8       1:   15    1:   15  296:  298
           9       1:   15    1:   15   11:   13
          10       1:   15    1:   15  294:  295
          11       1:   15    1:   15   14:   15
          12       1:   15    1:   15  283:  285
          13       1:   15    1:   15   16:   18
          14       1:   15    1:   15    4:    5
          15       1:   15    1:   15  289:  290
          16       1:   15    1:   15  286:  288
Setting up quadratic distribution...
ExtMesh (bp) on 0 =   111 x   111 x    86 =     1059606
PhiOnMesh: Number of (b)points on node 0 =                  450
PhiOnMesh: nlist on node 0 =                53173

stepf: Fermi-Dirac step function

siesta: Program's energy decomposition (eV):
siesta: Ebs     =       -97.008810
siesta: Eions   =       511.194752
siesta: Ena     =       112.045505
siesta: Ekin    =       224.428839
siesta: Enl     =       -23.541828
siesta: Eso     =         0.000000
siesta: Eldau   =         0.000000
siesta: DEna    =       -14.012583
siesta: DUscf   =         1.384203
siesta: DUext   =         0.000000
siesta: Enegf   =         0.000000
siesta: Exc     =      -113.569254
siesta: eta*DQ  =         0.000000
siesta: Emadel  =         0.000000
siesta: Emeta   =         0.000000
siesta: Emolmec =         0.000000
siesta: Ekinion =         0.000000
siesta: Eharris =      -320.094587
siesta: Etot    =      -324.459868
siesta: FreeEng =      -324.459895

SCF Convergence by DM+H criterion
max |DM_out - DM_in|         :     0.0000167451
max |H_out - H_in|      (eV) :     0.0004573837
SCF cycle converged after 7 iterations

Using DM_out to compute the final energy and forces
No. of atoms with KB's overlaping orbs in proc 0. Max # of overlaps:      25     263

siesta: E_KS(eV) =             -324.6680

siesta: E_KS - E_eggbox =      -324.6680

siesta: Atomic forces (eV/Ang):
   Tot    0.007802   -0.000000   -0.000000
   Max    1.153570
   Res    0.663765    sqrt( Sum f_i^2 / 3N )
   Max    1.153570    constrained

Stress-tensor-Voigt (kbar):       -7.60      -11.54       -0.00       -0.00        0.00       -0.00
(Free)E + p*V (eV/cell)     -323.6410
Target enthalpy (eV/cell)     -324.6680

mulliken: Atomic and Orbital Populations:

Species: C
Atom  Qatom  Qorb
               2Pdxy   2Pdyz   2Pdz2   2Pdxz   2Pdx2-y2
   1  4.000   0.317   0.629   0.634   0.601   0.615   0.340   0.315   0.354
              0.051   0.043   0.007   0.041   0.053
   2  4.000   0.317   0.629   0.635   0.601   0.615   0.340   0.315   0.353
              0.051   0.043   0.007   0.041   0.053

mulliken: Qtot =        8.000

coxmol: Writing XMOL coordinates into file graphene.xyz
Computing bands...

siesta: Band energies (eV):
  ik is    eps
   1  1 -17.11 -16.92 -14.97  -4.49  -4.23   7.99   9.31   9.67  11.19  15.88
         15.94  16.42  16.69  20.76  28.89  41.89  42.04  54.22  55.29  60.86
         61.34  81.67 111.39 112.52 114.31 131.93
   2  1 -17.18 -16.84 -14.97  -4.59  -4.13   7.99   9.32   9.62  11.21  15.75
         16.07  16.40  16.74  20.75  28.91  41.62  42.31  54.27  55.25  60.78
         61.38  81.68 111.12 111.95 115.17 131.97
   3  1 -17.28 -16.75 -14.95  -4.72  -4.00   8.00   9.32   9.56  11.22  15.62
         16.22  16.39  16.80  20.74  28.94  41.33  42.59  54.23  55.17  60.51
         61.67  81.63 110.56 111.43 116.36 132.08
   4  1 -17.41 -16.65 -14.91  -4.85  -3.87   8.03   9.29   9.50  11.23  15.49
         16.37  16.40  16.86  20.72  28.98  41.05  42.87  54.10  55.05  60.25
         62.03  81.55 109.77 111.08 117.70 132.26
   5  1 -17.54 -16.55 -14.86  -4.99  -3.72   8.06   9.25   9.43  11.22  15.36
         16.43  16.53  16.92  20.69  29.03  40.78  43.14  53.90  54.86  60.04
         62.41  81.42 108.93 110.76 119.14 132.51
   6  1 -17.68 -16.44 -14.80  -5.14  -3.58   8.10   9.19   9.36  11.20  15.23
         16.49  16.69  16.99  20.67  29.09  40.52  43.39  53.64  54.60  59.87
         62.82  81.24 108.11 110.43 120.66 132.83
   7  1 -17.83 -16.33 -14.72  -5.29  -3.43   8.15   9.11   9.29  11.16  15.11
         16.58  16.86  17.05  20.64  29.16  40.27  43.64  53.33  54.28  59.76
         63.25  81.02 107.31 110.07 122.25 133.23
   8  1 -17.98 -16.22 -14.64  -5.44  -3.27   8.21   9.02   9.23  11.10  15.00
         16.68  17.04  17.11  20.61  29.24  40.04  43.87  52.98  53.91  59.70
         63.68  80.76 106.55 109.68 123.88 133.72
   9  1 -18.14 -16.11 -14.55  -5.60  -3.12   8.28   8.92   9.17  11.02  14.89
         16.81  17.16  17.22  20.59  29.32  39.81  44.09  52.58  53.50  59.68
         64.12  80.45 105.83 109.26 125.53 134.32
  10  1 -18.30 -15.99 -14.45  -5.75  -2.96   8.35   8.80   9.11  10.92  14.79
         16.95  17.21  17.41  20.56  29.41  39.60  44.29  52.16  53.06  59.70
         64.56  80.10 105.15 108.81 127.16 135.03
  11  1 -18.46 -15.87 -14.35  -5.91  -2.79   8.42   8.68   9.05  10.81  14.70
         17.10  17.25  17.61  20.54  29.52  39.40  44.48  51.70  52.60  59.74
         64.99  79.71 104.52 108.33 128.72 135.91
  12  1 -18.62 -15.75 -14.24  -6.07  -2.62   8.50   8.56   9.00  10.68  14.61
         17.24  17.30  17.81  20.52  29.62  39.22  44.66  51.20  52.16  59.81
         65.41  79.29 103.93 107.83 130.16 136.99
  13  1 -18.78 -15.62 -14.13  -6.23  -2.45   8.43   8.59   8.94  10.54  14.54
         17.27  17.45  18.02  20.51  29.74  39.05  44.82  50.67  51.73  59.91
         65.82  78.82 103.38 107.30 131.43 138.30
  14  1 -18.94 -15.49 -14.01  -6.40  -2.28   8.29   8.67   8.88  10.39  14.48
         17.27  17.63  18.23  20.52  29.86  38.90  44.97  50.11  51.32  60.01
         66.21  78.32 102.88 106.74 132.53 139.82
  15  1 -19.10 -15.36 -13.89  -6.56  -2.10   8.16   8.75   8.83  10.24  14.44
         17.25  17.81  18.45  20.53  29.98  38.77  45.10  49.54  50.93  60.14
         66.60  77.79 102.41 106.17 133.48 141.51
  16  1 -19.26 -15.23 -13.77  -6.72  -1.92   8.02   8.77   8.83  10.07  14.41
         17.21  18.00  18.69  20.56  30.11  38.65  45.21  48.97  50.57  60.27
         66.96  77.22 101.98 105.57 134.31 143.31
  17  1 -19.41 -15.10 -13.64  -6.88  -1.74   7.88   8.71   8.90   9.90  14.40
         17.14  18.18  18.92  20.60  30.23  38.55  45.32  48.40  50.24  60.41
         67.31  76.62 101.57 104.97 135.06 145.18
  18  1 -19.57 -14.96 -13.52  -7.05  -1.56   7.74   8.65   8.97   9.72  14.41
         17.06  18.37  19.17  20.66  30.36  38.47  45.40  47.84  49.92  60.56
         67.65  76.00 101.19 104.35 135.76 147.06
  19  1 -19.72 -14.82 -13.39  -7.21  -1.37   7.59   8.59   9.03   9.54  14.43
         16.96  18.56  19.42  20.74  30.48  38.42  45.47  47.31  49.63  60.72
         67.97  75.35 100.83 103.73 136.40 148.92
  20  1 -19.88 -14.68 -13.25  -7.37  -1.18   7.45   8.53   9.08   9.35  14.48
         16.84  18.74  19.68  20.83  30.60  38.39  45.53  46.81  49.36  60.88
         68.27  74.68 100.47 103.11 137.02 150.72
[...]
 207  1 -17.17 -16.91 -14.91  -4.58  -4.15   8.02   9.19   9.76  11.16  15.65
         16.17  16.43  16.73  20.77  28.88  41.37  42.57  53.81  55.32  60.42
         62.04  81.54 111.02 112.19 115.20 132.09
 208  1 -17.13 -16.92 -14.93  -4.53  -4.20   8.01   9.23   9.74  11.16  15.72
         16.10  16.44  16.70  20.77  28.88  41.53  42.40  53.95  55.31  60.54
         61.84  81.59 111.29 112.29 114.76 132.02
 209  1 -17.11 -16.94 -14.95  -4.49  -4.23   8.00   9.26   9.72  11.17  15.78
         16.03  16.44  16.68  20.77  28.88  41.69  42.25  54.07  55.31  60.65
         61.65  81.63 111.43 112.46 114.40 131.97
 210  1 -17.10 -16.94 -14.96  -4.48  -4.25   7.99   9.29   9.70  11.18  15.85
         15.97  16.44  16.68  20.77  28.88  41.83  42.10  54.16  55.30  60.77
         61.48  81.66 111.45 112.59 114.20 131.94
 211  1 -17.11 -16.92 -14.97  -4.49  -4.23   7.99   9.31   9.67  11.19  15.88
         15.94  16.42  16.69  20.76  28.89  41.89  42.04  54.22  55.29  60.86
         61.34  81.67 111.39 112.52 114.31 131.93

siesta: Eigenvalues (eV):
  ik is    eps
   1  1 -18.76 -17.63 -10.81  -6.70  -2.71   3.21  10.38  11.14  11.64  13.65
         15.59  19.93  20.54  28.67  30.07  31.93  37.96  47.19  54.16  55.12
         62.00  68.82  68.93 100.12 107.59 149.25
   2  1 -19.00 -17.37 -10.79  -6.81  -2.57   3.22  10.16  11.04  11.79  13.80
         15.46  19.93  20.57  28.66  30.18  32.04  38.09  47.01  54.02  54.36
         62.58  68.63  68.95 100.46 108.04 148.87
   3  1 -19.28 -17.04 -10.76  -6.98  -2.35   3.23   9.87  10.89  11.96  14.03
         15.25  19.93  20.63  28.64  30.36  32.24  38.31  46.72  53.39  53.79
         63.30  68.31  68.99 100.83 108.95 148.24
   4  1 -19.57 -16.70 -10.72  -7.20  -2.07   3.25   9.54  10.72  12.11  14.32
         14.97  19.95  20.71  28.62  30.60  32.51  38.61  46.32  52.39  53.48
         64.03  67.87  69.05 101.01 110.44 147.39
   5  1 -19.86 -16.33 -10.67  -7.44  -1.74   3.28   9.18  10.52  12.24  14.63
         14.67  19.98  20.82  28.58  30.90  32.88  39.00  45.85  51.48  53.09
         64.72  67.32  69.14 100.92 112.53 146.34
   6  1 -20.14 -15.96 -10.61  -7.70  -1.38   3.31   8.82  10.32  12.33  14.23
         15.07  20.02  20.94  28.52  31.27  33.34  39.45  45.33  50.70  52.63
         65.35  66.67  69.24 100.58 115.11 145.14
   7  1 -20.41 -15.57 -10.53  -7.97  -0.99   3.35   8.45  10.12  12.38  13.79
         15.51  20.09  21.09  28.45  31.69  33.91  39.97  44.82  50.06  52.11
         65.91  65.92  69.37 100.03 118.03 143.81
   8  1 -20.68 -15.18 -10.45  -8.24  -0.58   3.39   8.08   9.92  12.39  13.31
         15.99  20.19  21.26  28.36  32.17  34.61  40.55  44.39  49.56  51.55
         65.08  66.41  69.53  99.31 121.15 142.41
   9  1 -20.94 -14.79 -10.35  -8.51  -0.16   3.43   7.72   9.72  12.35  12.81
         16.53  20.32  21.46  28.26  32.72  35.46  41.17  44.06  49.17  50.95
         64.17  66.86  69.72  98.47 124.31 140.97
  10  1 -21.19 -14.39 -10.25  -8.78   0.27   3.48   7.36   9.53  12.24  12.31
         17.11  20.49  21.68  28.13  33.35  36.48  41.83  43.87  48.88  50.32
         63.19  67.26  69.93  97.53 127.38 139.55
  11  1 -21.42 -13.98 -10.13  -9.05   0.72   3.53   7.02   9.35  11.75  12.15
         17.74  20.69  21.92  27.99  34.05  37.72  42.51  43.84  48.68  49.69
         62.17  67.61  70.17  96.50 130.22 138.18
  12  1 -21.65 -13.58 -10.01  -9.30   1.17   3.58   6.70   9.17  11.20  11.98
         18.43  20.92  22.18  27.85  34.84  39.21  43.20  43.99  48.56  49.05
         61.09  67.93  70.44  95.42 132.73 136.93
  13  1 -21.87 -13.17  -9.88  -9.55   1.62   3.63   6.38   9.01  10.66  11.79
         19.16  21.18  22.46  27.71  35.74  41.00  43.88  44.32  48.42  48.52
         59.99  68.23  70.73  94.28 134.67 135.95
  14  1 -22.08 -12.76  -9.79  -9.73   2.07   3.68   6.09   8.85  10.11  11.57
         19.94  21.46  22.77  27.58  36.76  43.17  44.56  44.84  47.81  48.54
         58.87  68.50  71.04  93.13 134.64 136.65
  15  1 -22.27 -12.35 -10.01  -9.58   2.52   3.72   5.82   8.70   9.57  11.33
         20.75  21.75  23.10  27.50  37.91  45.26  45.49  45.77  47.25  48.61
         57.73  68.77  71.36  91.96 133.92 137.74
  16  1 -22.46 -11.95 -10.23  -9.43   2.97   3.77   5.57   8.56   9.04  11.08
         21.58  22.03  23.45  27.48  39.21  45.97  46.29  46.62  48.75  48.97
         56.59  69.03  71.68  90.80 133.38 138.40
  17  1 -22.63 -11.55 -10.43  -9.27   3.40   3.80   5.34   8.43   8.51  10.83
         22.29  22.42  23.81  27.57  40.67  46.13  46.65  47.26  48.97  52.63
         55.47  69.31  72.00  89.67 133.04 138.66
  18  1 -22.80 -11.16 -10.63  -9.10   3.83   3.83   5.13   8.01   8.31  10.57
         22.50  23.24  24.20  27.82  42.28  45.68  47.34  48.25  49.41  54.27
         56.94  69.60  72.31  88.60 132.92 138.58
  19  1 -22.95 -10.81 -10.77  -8.93   3.84   4.24   4.95   7.52   8.19  10.31
         22.64  24.03  24.60  28.29  43.99  45.27  48.11  48.83  50.47  53.19
         61.66  69.94  72.60  87.62 132.98 138.25
  20  1 -23.09 -10.98 -10.40  -8.75   3.84   4.63   4.79   7.05   8.09  10.05
         22.69  24.76  25.03  29.04  44.94  45.63  49.09  49.19  52.04  52.11
         66.73  70.35  72.87  86.77 133.18 137.76
[...]
2077  1 -18.99 -17.12 -11.30  -6.92  -2.26   3.55  10.10  10.75  11.96  13.76
         15.84  19.23  20.15  25.22  32.54  33.61  38.78  51.37  53.17  55.34
         67.17  69.42  70.94  99.08 109.34 148.73
2078  1 -18.90 -17.27 -11.18  -6.90  -2.32   3.37  10.20  10.89  11.94  13.67
         15.90  19.18  20.28  26.21  32.19  33.22  38.40  49.97  53.72  55.36
         65.97  67.25  70.48  98.75 108.75 149.32
2079  1 -18.83 -17.39 -11.10  -6.88  -2.37   3.24  10.28  11.01  11.91  13.60
         15.95  19.14  20.39  27.31  31.93  32.33  38.44  48.47  54.14  55.55
         63.75  67.28  70.13  98.50 108.37 149.75
2080  1 -18.77 -17.47 -11.04  -6.87  -2.40   3.16  10.34  11.08  11.89  13.55
         15.99  19.11  20.46  28.52  31.12  31.76  38.67  47.34  54.41  55.75
         62.49  67.31  69.90  98.35 108.16 150.00
2081  1 -18.76 -17.50 -11.03  -6.87  -2.41   3.13  10.36  11.10  11.87  13.53
         16.00  19.10  20.48  29.76  29.87  31.71  38.79  46.91  54.50  55.84
         62.08  67.32  69.82  98.30 108.09 150.09
siesta: Fermi energy =      -4.364657 eV
siesta: PDOS info:
siesta: e1, e2, sigma, nhist:    -6.50 eV   -2.50 eV    0.05 eV    700

siesta: Program's energy decomposition (eV):
siesta: Ebs     =      -108.454561
siesta: Eions   =       511.194752
siesta: Ena     =       112.045505
siesta: Ekin    =       217.538038
siesta: Enl     =       -21.978225
siesta: Eso     =         0.000000
siesta: Eldau   =         0.000000
siesta: DEna    =        -9.729369
siesta: DUscf   =         0.854777
siesta: DUext   =         0.000000
siesta: Enegf   =         0.000000
siesta: Exc     =      -112.203937
siesta: eta*DQ  =         0.000000
siesta: Emadel  =         0.000000
siesta: Emeta   =         0.000000
siesta: Emolmec =         0.000000
siesta: Ekinion =         0.000000
siesta: Eharris =      -324.667963
siesta: Etot    =      -324.667963
siesta: FreeEng =      -324.667987

siesta: Final energy (eV):
siesta:  Band Struct. =    -108.454561
siesta:       Kinetic =     217.538038
siesta:       Hartree =    4228.232918
siesta:       Eldau   =       0.000000
siesta:       Eso     =       0.000000
siesta:    Ext. field =       0.000000
siesta:       Enegf   =       0.000000
siesta:   Exch.-corr. =    -112.203937
siesta:  Ion-electron =   -8656.243146
siesta:       Ion-ion =    3998.008164
siesta:       Ekinion =       0.000000
siesta:         Total =    -324.667963
siesta:         Fermi =      -4.364657

siesta: Atomic forces (eV/Ang):
siesta:      1    1.153570    0.000000   -0.000000
siesta:      2   -1.145768   -0.000000   -0.000000
siesta: ----------------------------------------
siesta:    Tot    0.007802   -0.000000   -0.000000

siesta: Stress tensor (static) (eV/Ang**3):
siesta:    -0.004743    0.000000   -0.000000
siesta:    -0.000000   -0.007203   -0.000000
siesta:    -0.000000    0.000000   -0.000002

siesta: Cell volume =        257.849175 Ang**3

siesta: Pressure (static):
siesta:                Solid            Molecule  Units
siesta:           0.00004338          0.00006669  Ry/Bohr**3
siesta:           0.00398273          0.00612290  eV/Ang**3
siesta:           6.38110719          9.81007426  kBar
(Free)E+ p_basis*V_orbitals  =        -323.570526
(Free)Eharris+ p_basis*V_orbitals  =        -323.570526

siesta: Electric dipole (a.u.)  =    0.000000    0.000000   -0.000000
siesta: Electric dipole (Debye) =    0.000000    0.000000   -0.000000
>> End of run:  19-NOV-2020  11:57:04
Job completed